54 112 86 25 162 130 147 94 55 150 27 11 114 132 46 20 181 163 113 24 19 141 9 8 101 115 2 82 39 5 58 149 63 42 76 90 53 153 62 15 151 157 183 106 85 95 188 142 84 17 81 182 105 103 186 13 67 32 165 44 159 64 173 77 98 30 56 71 134 160 75 79 193 156 68 133 126 108 124 145 45 51 7 65 37 185 148 167 10 88 109 41 22 120 189 100 194 73 111 60 170 6 197 131 66 74 158 35 128 107 198 175 196 190 28 127 57 102 110 192 21 184 172 152 69 48 169 97 138 139 89 16 93 166 96 104 31 161 125 199 155 0 49 168 33 80 137 119 179 129 174 26 23 164 87 178 12 180 78 146 40 83 136 171 14 72 38 187 70 121 122 92 3 154 43 59 52 123 176 4 117 144 135 18 195 36 61 34 118 50 191 1 99 29 143 47 140 91 116 177